<instance format="XCSP3" type="CSP">
  <variables>
    <var id="x0"> 1 11 </var>
    <var id="x1"> 1 4 7 9 11 13 </var>
    <var id="x2"> 4 7 9 </var>
    <var id="x3"> 4 7 11 12 </var>
    <var id="x4"> 1 9 12 </var>
    <var id="x5"> 4 7 11..13 </var>
    <var id="x6"> 4 7 9 </var>
    <var id="x7"> 1 2 10 11 </var>
    <var id="x8"> 1 7 10 11 </var>
    <var id="x9"> 1 2 11 </var>
    <var id="x10"> 2 4 7 9 10 </var>
    <var id="x11"> 2 4 11 </var>
    <var id="x12"> 1 4 7 9 11 </var>
    <var id="x13"> 2 4 7 9 </var>
    <var id="x14"> 1 3 </var>
    <var id="x15"> 1 7 8 </var>
    <var id="x16"> 1 7 8 10 </var>
    <var id="x17"> 1 3 8 </var>
    <var id="x18"> 1 8 14 </var>
    <var id="x19"> 5 7 14 </var>
    <var id="x20"> 1 10 14 </var>
    <var id="x21"> 2 4 11 </var>
    <var id="x22"> 0 7 11 </var>
    <var id="x23"> 4 7 10 11 </var>
    <var id="x24"> 0 2 11 </var>
    <var id="x25"> 5 10 </var>
    <var id="x26"> 4 7 11 </var>
    <var id="x27"> 0 2 4 5 7 </var>
    <var id="x28"> 1 6 8 11 12 </var>
    <var id="x29"> 1 4 8 11 </var>
    <var id="x30"> 4 6 8 11 </var>
    <var id="x31"> 1 4 6 8 11 </var>
    <var id="x32"> 1 8 12 14 </var>
    <var id="x33"> 4 6 8 11 12 </var>
    <var id="x34"> 4 6 </var>
    <var id="x35"> 3 4 6 11 </var>
    <var id="x36"> 5 8 11 </var>
    <var id="x37"> 3 8 11 </var>
    <var id="x38"> 4..6 8 11 </var>
    <var id="x39"> 4 5 7 11 </var>
    <var id="x40"> 4 </var>
    <var id="x41"> 4 6..8 11 </var>
    <var id="x42"> 0 1 5 8 </var>
    <var id="x43"> 0 1 8 13 </var>
    <var id="x44"> 5 7 9 </var>
    <var id="x45"> 5 8 13 </var>
    <var id="x46"> 1 5 8 9 </var>
    <var id="x47"> 7 8 13 </var>
    <var id="x48"> 0 5 7 9 </var>
    <var id="x49"> 0..2 11 </var>
    <var id="x50"> 0 1 9 11 13 </var>
    <var id="x51"> 0..2 11 13 </var>
    <var id="x52"> 1 9 11 </var>
    <var id="x53"> 2 6 11 13 </var>
    <var id="x54"> 6 11 13 </var>
    <var id="x55"> 0 2 6 9 </var>
    <var id="x56"> 8 10 11 </var>
    <var id="x57"> 4 8..11 </var>
    <var id="x58"> 4 8 9 11 14 </var>
    <var id="x59"> 2 4 8 11 </var>
    <var id="x60"> 4 11 14 </var>
    <var id="x61"> 4 8 9 11 </var>
    <var id="x62"> 8..10 14 </var>
    <var id="x63"> 1 11 13 </var>
    <var id="x64"> 1 7 9 11 13 </var>
    <var as="x64" id="x65"/>
    <var id="x66"> 1 9 11 12 </var>
    <var id="x67"> 5 7 9 </var>
    <var id="x68"> 5 7 11 12 </var>
    <var id="x69"> 1 9 13 </var>
    <var id="x70"> 6..8 10 12 </var>
    <var id="x71"> 4 7 8 10 </var>
    <var id="x72"> 4 8 12 </var>
    <var id="x73"> 4 6 7 10 </var>
    <var id="x74"> 4 6 8 </var>
    <var id="x75"> 4 6..8 </var>
    <var id="x76"> 0 4 10 </var>
    <var id="x77"> 1 8 11 </var>
    <var id="x78"> 1 8 9 11 13 </var>
    <var id="x79"> 1 4 8 9 11 13 </var>
    <var id="x80"> 1 8 11 13 </var>
    <var id="x81"> 1 4 8 9 11 </var>
    <var id="x82"> 4 6 9 </var>
    <var id="x83"> 1 4 6 8 9 11 </var>
    <var id="x84"> 1 2 4 </var>
    <var id="x85"> 0 1 8 9 </var>
    <var id="x86"> 1 8 12 </var>
    <var id="x87"> 1 4 8 9 12 </var>
    <var id="x88"> 0 4 12 </var>
    <var id="x89"> 0 1 4 9 </var>
    <var id="x90"> 1 8 9 12 </var>
    <var id="x91"> 4 6 11 13 </var>
    <var id="x92"> 8 11 13 </var>
    <var id="x93"> 4..6 10 </var>
    <var id="x94"> 4 6 8 11 </var>
    <var id="x95"> 4 10 13 14 </var>
    <var id="x96"> 5 8 10 14 </var>
    <var id="x97"> 4 6 8 11 13 </var>
    <var id="x98"> 4..6 </var>
    <var id="x99"> 1 2 6 11 13 </var>
    <var id="x100"> 0..2 8 11 </var>
    <var id="x101"> 1 6 8 11 </var>
    <var id="x102"> 1 8 11 13 </var>
    <var id="x103"> 0 11 </var>
    <var id="x104"> 1 6 8 11 </var>
    <var id="x105"> 0 1 13 </var>
  </variables>
  <constraints>
    <group>
      <allDifferent> %... </allDifferent>
      <args> x0 x1 x2 x3 x4 x5 x6 </args>
      <args> x7 x8 x9 x10 x11 x12 x13 </args>
      <args> x14 x15 x16 x17 x18 x19 x20 </args>
      <args> x21 x22 x23 x24 x25 x26 x27 </args>
      <args> x28 x29 x30 x31 x32 x33 x34 </args>
      <args> x35 x36 x37 x38 x39 x40 x41 </args>
      <args> x42 x43 x44 x45 x46 x47 x48 </args>
      <args> x49 x50 x51 x52 x53 x54 x55 </args>
      <args> x56 x57 x58 x59 x60 x61 x62 </args>
      <args> x63 x64 x65 x66 x67 x68 x69 </args>
      <args> x70 x71 x72 x73 x74 x75 x76 </args>
      <args> x77 x78 x79 x80 x81 x82 x83 </args>
      <args> x84 x85 x86 x87 x88 x89 x90 </args>
      <args> x91 x92 x93 x94 x95 x96 x97 x98 </args>
      <args> x99 x100 x101 x102 x103 x104 x105 </args>
      <args> x14 x21 x35 x63 x84 x91 x99 </args>
      <args> x0 x7 x36 x42 x49 x77 x100 </args>
      <args> x15 x22 x50 x64 x78 x85 x92 </args>
      <args> x8 x16 x28 x56 x70 x86 x101 </args>
      <args> x1 x23 x29 x57 x65 x71 x79 x102 </args>
      <args> x9 x17 x24 x37 x43 x51 x80 </args>
      <args> x18 x52 x58 x66 x72 x81 x87 </args>
      <args> x2 x10 x44 x67 x73 x82 x93 </args>
      <args> x11 x30 x38 x45 x53 x59 x74 </args>
      <args> x3 x19 x39 x60 x68 x88 x103 </args>
      <args> x12 x31 x61 x75 x83 x94 x104 </args>
      <args> x20 x40 x69 x76 x89 x95 x105 </args>
      <args> x4 x25 x32 x46 x62 x90 x96 </args>
      <args> x5 x26 x33 x41 x47 x54 x97 </args>
      <args> x6 x13 x27 x34 x48 x55 x98 </args>
    </group>
  </constraints>
</instance>

